60
1 0 16
2 0 5
2 1 4
3 0 7
3 1 11
3 2 17
4 0 13
4 1 8
4 2 8
4 3 15
5 0 18
5 1 16
5 2 6
5 3 7
5 4 8
6 0 15
6 1 6
6 2 4
6 3 3
6 4 8
6 5 17
7 0 7
7 1 12
7 2 16
7 3 14
7 4 13
7 5 17
7 6 1
8 0 1
8 1 12
8 2 12
8 3 3
8 4 15
8 5 16
8 6 16
8 7 8
9 0 3
9 1 17
9 2 12
9 3 12
9 4 3
9 5 8
9 6 9
9 7 10
9 8 10
10 0 20
10 1 13
10 2 8
10 3 7
10 4 7
10 5 17
10 6 5
10 7 17
10 8 4
10 9 7
11 0 1
11 1 15
11 2 6
11 3 13
11 4 5
11 5 20
11 6 7
11 7 1
11 8 7
11 9 5
11 10 3
12 0 12
12 1 13
12 2 1
12 3 19
12 4 1
12 5 3
12 6 1
12 7 13
12 8 6
12 9 14
12 10 5
12 11 9
13 0 18
13 1 10
13 2 16
13 3 20
13 4 11
13 5 13
13 6 4
13 7 10
13 8 20
13 9 5
13 10 19
13 11 15
13 12 16
14 0 17
14 1 14
14 2 6
14 3 2
14 4 17
14 5 9
14 6 11
14 7 11
14 8 3
14 9 4
14 10 5
14 11 5
14 12 3
14 13 11
15 0 3
15 1 5
15 2 6
15 3 8
15 4 18
15 5 14
15 6 2
15 7 19
15 8 6
15 9 16
15 10 17
15 11 18
15 12 10
15 13 16
15 14 7
16 0 9
16 1 19
16 2 18
16 3 20
16 4 18
16 5 9
16 6 11
16 7 16
16 8 9
16 9 6
16 10 12
16 11 13
16 12 15
16 13 15
16 14 13
16 15 7
17 0 20
17 1 5
17 2 10
17 3 18
17 4 13
17 5 16
17 6 6
17 7 6
17 8 4
17 9 12
17 10 14
17 11 12
17 12 9
17 13 11
17 14 11
17 15 13
17 16 7
18 0 9
18 1 5
18 2 2
18 3 6
18 4 5
18 5 8
18 6 1
18 7 5
18 8 16
18 9 14
18 10 2
18 11 7
18 12 20
18 13 11
18 14 10
18 15 16
18 16 20
18 17 3
19 0 2
19 1 11
19 2 4
19 3 12
19 4 8
19 5 14
19 6 12
19 7 16
19 8 10
19 9 10
19 10 18
19 11 6
19 12 4
19 13 13
19 14 20
19 15 17
19 16 7
19 17 3
19 18 16
20 0 14
20 1 6
20 2 15
20 3 3
20 4 13
20 5 4
20 6 13
20 7 4
20 8 1
20 9 14
20 10 1
20 11 15
20 12 12
20 13 20
20 14 3
20 15 18
20 16 4
20 17 11
20 18 9
20 19 20
21 0 17
21 1 8
21 2 16
21 3 12
21 4 9
21 5 2
21 6 2
21 7 15
21 8 1
21 9 2
21 10 8
21 11 7
21 12 13
21 13 19
21 14 9
21 15 14
21 16 1
21 17 10
21 18 10
21 19 2
21 20 2
22 0 18
22 1 10
22 2 12
22 3 3
22 4 12
22 5 5
22 6 6
22 7 20
22 8 2
22 9 2
22 10 13
22 11 18
22 12 1
22 13 4
22 14 6
22 15 13
22 16 19
22 17 20
22 18 15
22 19 16
22 20 5
22 21 11
23 0 18
23 1 4
23 2 2
23 3 13
23 4 1
23 5 20
23 6 20
23 7 15
23 8 16
23 9 4
23 10 4
23 11 12
23 12 14
23 13 1
23 14 2
23 15 19
23 16 7
23 17 6
23 18 17
23 19 19
23 20 3
23 21 1
23 22 3
24 0 10
24 1 11
24 2 11
24 3 6
24 4 7
24 5 6
24 6 6
24 7 14
24 8 8
24 9 3
24 10 6
24 11 4
24 12 2
24 13 17
24 14 6
24 15 12
24 16 2
24 17 14
24 18 8
24 19 9
24 20 6
24 21 12
24 22 4
24 23 7
25 0 17
25 1 6
25 2 15
25 3 14
25 4 14
25 5 5
25 6 8
25 7 19
25 8 6
25 9 20
25 10 18
25 11 20
25 12 12
25 13 9
25 14 1
25 15 13
25 16 4
25 17 6
25 18 9
25 19 7
25 20 20
25 21 19
25 22 5
25 23 6
25 24 3
26 0 12
26 1 6
26 2 9
26 3 19
26 4 18
26 5 7
26 6 7
26 7 15
26 8 18
26 9 4
26 10 17
26 11 10
26 12 2
26 13 2
26 14 14
26 15 1
26 16 2
26 17 6
26 18 13
26 19 9
26 20 7
26 21 13
26 22 5
26 23 9
26 24 8
26 25 20
27 0 15
27 1 17
27 2 20
27 3 8
27 4 17
27 5 1
27 6 2
27 7 17
27 8 8
27 9 5
27 10 9
27 11 15
27 12 11
27 13 16
27 14 19
27 15 11
27 16 6
27 17 16
27 18 16
27 19 1
27 20 19
27 21 17
27 22 8
27 23 4
27 24 20
27 25 2
27 26 13
28 0 17
28 1 12
28 2 15
28 3 11
28 4 14
28 5 2
28 6 11
28 7 13
28 8 14
28 9 20
28 10 15
28 11 4
28 12 4
28 13 9
28 14 4
28 15 15
28 16 5
28 17 7
28 18 2
28 19 12
28 20 13
28 21 6
28 22 7
28 23 16
28 24 17
28 25 20
28 26 6
28 27 17
29 0 15
29 1 7
29 2 14
29 3 17
29 4 5
29 5 13
29 6 15
29 7 9
29 8 16
29 9 19
29 10 2
29 11 3
29 12 5
29 13 18
29 14 13
29 15 11
29 16 14
29 17 18
29 18 17
29 19 9
29 20 2
29 21 7
29 22 15
29 23 15
29 24 8
29 25 12
29 26 16
29 27 3
29 28 16
30 0 6
30 1 12
30 2 8
30 3 16
30 4 19
30 5 14
30 6 17
30 7 9
30 8 3
30 9 1
30 10 19
30 11 19
30 12 3
30 13 11
30 14 13
30 15 5
30 16 14
30 17 12
30 18 17
30 19 19
30 20 14
30 21 5
30 22 16
30 23 17
30 24 19
30 25 18
30 26 11
30 27 7
30 28 1
30 29 2
31 0 4
31 1 14
31 2 17
31 3 5
31 4 3
31 5 14
31 6 7
31 7 9
31 8 6
31 9 13
31 10 7
31 11 4
31 12 3
31 13 19
31 14 7
31 15 18
31 16 12
31 17 18
31 18 12
31 19 16
31 20 7
31 21 5
31 22 19
31 23 12
31 24 18
31 25 4
31 26 12
31 27 8
31 28 16
31 29 18
31 30 16
32 0 18
32 1 14
32 2 19
32 3 12
32 4 2
32 5 2
32 6 4
32 7 18
32 8 5
32 9 18
32 10 19
32 11 6
32 12 8
32 13 19
32 14 17
32 15 5
32 16 2
32 17 5
32 18 7
32 19 13
32 20 14
32 21 5
32 22 1
32 23 4
32 24 17
32 25 3
32 26 4
32 27 5
32 28 18
32 29 4
32 30 19
32 31 20
33 0 18
33 1 8
33 2 3
33 3 18
33 4 4
33 5 5
33 6 10
33 7 4
33 8 3
33 9 18
33 10 17
33 11 6
33 12 13
33 13 11
33 14 17
33 15 1
33 16 18
33 17 19
33 18 10
33 19 17
33 20 17
33 21 20
33 22 10
33 23 15
33 24 13
33 25 16
33 26 14
33 27 17
33 28 12
33 29 19
33 30 3
33 31 17
33 32 6
34 0 7
34 1 5
34 2 18
34 3 12
34 4 1
34 5 20
34 6 6
34 7 20
34 8 11
34 9 10
34 10 5
34 11 9
34 12 16
34 13 1
34 14 19
34 15 15
34 16 11
34 17 20
34 18 15
34 19 19
34 20 15
34 21 9
34 22 7
34 23 8
34 24 5
34 25 15
34 26 13
34 27 6
34 28 1
34 29 6
34 30 5
34 31 4
34 32 7
34 33 7
35 0 16
35 1 11
35 2 20
35 3 5
35 4 6
35 5 6
35 6 8
35 7 8
35 8 1
35 9 16
35 10 9
35 11 8
35 12 7
35 13 12
35 14 18
35 15 4
35 16 16
35 17 13
35 18 18
35 19 9
35 20 7
35 21 2
35 22 5
35 23 20
35 24 12
35 25 5
35 26 15
35 27 16
35 28 3
35 29 2
35 30 8
35 31 13
35 32 12
35 33 2
35 34 19
36 0 18
36 1 14
36 2 18
36 3 17
36 4 5
36 5 2
36 6 3
36 7 15
36 8 15
36 9 12
36 10 1
36 11 4
36 12 17
36 13 12
36 14 8
36 15 6
36 16 9
36 17 2
36 18 5
36 19 16
36 20 2
36 21 17
36 22 20
36 23 18
36 24 2
36 25 19
36 26 20
36 27 1
36 28 6
36 29 1
36 30 3
36 31 8
36 32 11
36 33 14
36 34 7
36 35 6
37 0 2
37 1 13
37 2 5
37 3 16
37 4 11
37 5 20
37 6 1
37 7 10
37 8 5
37 9 13
37 10 10
37 11 14
37 12 19
37 13 14
37 14 13
37 15 2
37 16 4
37 17 2
37 18 8
37 19 9
37 20 19
37 21 16
37 22 6
37 23 16
37 24 9
37 25 11
37 26 7
37 27 19
37 28 16
37 29 17
37 30 7
37 31 18
37 32 3
37 33 2
37 34 19
37 35 20
37 36 20
38 0 10
38 1 17
38 2 18
38 3 2
38 4 9
38 5 19
38 6 6
38 7 15
38 8 18
38 9 10
38 10 2
38 11 2
38 12 17
38 13 9
38 14 14
38 15 3
38 16 6
38 17 12
38 18 11
38 19 19
38 20 2
38 21 19
38 22 19
38 23 16
38 24 4
38 25 19
38 26 12
38 27 9
38 28 13
38 29 7
38 30 5
38 31 15
38 32 19
38 33 19
38 34 2
38 35 3
38 36 19
38 37 6
39 0 20
39 1 17
39 2 17
39 3 2
39 4 1
39 5 1
39 6 5
39 7 5
39 8 19
39 9 8
39 10 10
39 11 17
39 12 20
39 13 8
39 14 1
39 15 15
39 16 10
39 17 14
39 18 17
39 19 7
39 20 19
39 21 4
39 22 9
39 23 10
39 24 12
39 25 15
39 26 14
39 27 1
39 28 17
39 29 10
39 30 3
39 31 11
39 32 16
39 33 9
39 34 10
39 35 20
39 36 13
39 37 14
39 38 19
40 0 17
40 1 12
40 2 6
40 3 13
40 4 17
40 5 18
40 6 20
40 7 5
40 8 2
40 9 3
40 10 19
40 11 6
40 12 15
40 13 1
40 14 6
40 15 4
40 16 8
40 17 13
40 18 9
40 19 14
40 20 16
40 21 5
40 22 4
40 23 5
40 24 5
40 25 8
40 26 15
40 27 16
40 28 14
40 29 14
40 30 1
40 31 18
40 32 2
40 33 16
40 34 4
40 35 9
40 36 13
40 37 16
40 38 10
40 39 14
41 0 12
41 1 5
41 2 16
41 3 19
41 4 8
41 5 7
41 6 9
41 7 8
41 8 18
41 9 15
41 10 10
41 11 4
41 12 17
41 13 3
41 14 9
41 15 5
41 16 3
41 17 8
41 18 20
41 19 7
41 20 11
41 21 8
41 22 4
41 23 12
41 24 16
41 25 17
41 26 6
41 27 9
41 28 20
41 29 1
41 30 20
41 31 16
41 32 3
41 33 6
41 34 13
41 35 6
41 36 8
41 37 18
41 38 19
41 39 18
41 40 12
42 0 10
42 1 13
42 2 19
42 3 13
42 4 14
42 5 1
42 6 6
42 7 5
42 8 16
42 9 4
42 10 11
42 11 17
42 12 13
42 13 8
42 14 12
42 15 7
42 16 8
42 17 4
42 18 11
42 19 10
42 20 13
42 21 20
42 22 14
42 23 16
42 24 7
42 25 8
42 26 12
42 27 12
42 28 13
42 29 14
42 30 5
42 31 13
42 32 7
42 33 14
42 34 16
42 35 10
42 36 13
42 37 17
42 38 20
42 39 13
42 40 6
42 41 6
43 0 4
43 1 12
43 2 13
43 3 19
43 4 15
43 5 15
43 6 2
43 7 1
43 8 5
43 9 11
43 10 2
43 11 6
43 12 17
43 13 15
43 14 9
43 15 2
43 16 2
43 17 12
43 18 2
43 19 2
43 20 1
43 21 18
43 22 13
43 23 8
43 24 17
43 25 6
43 26 12
43 27 5
43 28 20
43 29 10
43 30 18
43 31 15
43 32 18
43 33 8
43 34 4
43 35 1
43 36 14
43 37 10
43 38 15
43 39 10
43 40 5
43 41 3
43 42 9
44 0 13
44 1 9
44 2 2
44 3 2
44 4 19
44 5 10
44 6 12
44 7 9
44 8 18
44 9 7
44 10 12
44 11 8
44 12 8
44 13 2
44 14 12
44 15 16
44 16 6
44 17 6
44 18 19
44 19 4
44 20 13
44 21 7
44 22 10
44 23 3
44 24 14
44 25 8
44 26 11
44 27 19
44 28 9
44 29 14
44 30 15
44 31 2
44 32 2
44 33 11
44 34 17
44 35 11
44 36 5
44 37 8
44 38 5
44 39 5
44 40 2
44 41 5
44 42 5
44 43 7
45 0 3
45 1 15
45 2 5
45 3 4
45 4 10
45 5 11
45 6 17
45 7 14
45 8 13
45 9 17
45 10 8
45 11 14
45 12 12
45 13 8
45 14 3
45 15 9
45 16 19
45 17 13
45 18 5
45 19 12
45 20 9
45 21 17
45 22 17
45 23 5
45 24 3
45 25 12
45 26 12
45 27 12
45 28 17
45 29 1
45 30 17
45 31 15
45 32 13
45 33 12
45 34 14
45 35 1
45 36 18
45 37 13
45 38 19
45 39 7
45 40 15
45 41 12
45 42 5
45 43 19
45 44 4
46 0 2
46 1 15
46 2 8
46 3 6
46 4 10
46 5 19
46 6 20
46 7 9
46 8 17
46 9 12
46 10 5
46 11 13
46 12 12
46 13 2
46 14 12
46 15 11
46 16 17
46 17 8
46 18 8
46 19 11
46 20 9
46 21 12
46 22 3
46 23 13
46 24 1
46 25 11
46 26 1
46 27 4
46 28 4
46 29 5
46 30 4
46 31 8
46 32 11
46 33 1
46 34 19
46 35 16
46 36 7
46 37 8
46 38 2
46 39 13
46 40 6
46 41 5
46 42 15
46 43 13
46 44 1
46 45 6
47 0 17
47 1 8
47 2 16
47 3 20
47 4 6
47 5 20
47 6 13
47 7 15
47 8 8
47 9 6
47 10 5
47 11 11
47 12 15
47 13 12
47 14 3
47 15 18
47 16 10
47 17 12
47 18 9
47 19 12
47 20 10
47 21 12
47 22 10
47 23 4
47 24 19
47 25 5
47 26 13
47 27 9
47 28 4
47 29 11
47 30 18
47 31 1
47 32 18
47 33 12
47 34 12
47 35 17
47 36 18
47 37 11
47 38 4
47 39 3
47 40 4
47 41 9
47 42 20
47 43 7
47 44 1
47 45 11
47 46 18
48 0 13
48 1 16
48 2 10
48 3 18
48 4 2
48 5 6
48 6 16
48 7 13
48 8 1
48 9 5
48 10 20
48 11 9
48 12 5
48 13 19
48 14 8
48 15 3
48 16 1
48 17 7
48 18 4
48 19 20
48 20 20
48 21 15
48 22 20
48 23 9
48 24 15
48 25 14
48 26 16
48 27 19
48 28 12
48 29 14
48 30 15
48 31 14
48 32 1
48 33 13
48 34 2
48 35 10
48 36 18
48 37 12
48 38 5
48 39 12
48 40 15
48 41 18
48 42 3
48 43 15
48 44 1
48 45 13
48 46 14
48 47 2
49 0 1
49 1 13
49 2 18
49 3 18
49 4 4
49 5 12
49 6 7
49 7 7
49 8 8
49 9 9
49 10 19
49 11 19
49 12 9
49 13 16
49 14 15
49 15 14
49 16 11
49 17 8
49 18 12
49 19 19
49 20 4
49 21 6
49 22 7
49 23 8
49 24 15
49 25 2
49 26 9
49 27 9
49 28 9
49 29 11
49 30 9
49 31 13
49 32 13
49 33 5
49 34 20
49 35 3
49 36 1
49 37 18
49 38 16
49 39 20
49 40 17
49 41 12
49 42 6
49 43 7
49 44 1
49 45 6
49 46 20
49 47 9
49 48 6
50 0 13
50 1 4
50 2 9
50 3 19
50 4 3
50 5 3
50 6 18
50 7 8
50 8 20
50 9 16
50 10 17
50 11 5
50 12 17
50 13 14
50 14 16
50 15 3
50 16 20
50 17 9
50 18 12
50 19 14
50 20 9
50 21 10
50 22 17
50 23 11
50 24 6
50 25 2
50 26 12
50 27 13
50 28 8
50 29 14
50 30 8
50 31 5
50 32 15
50 33 4
50 34 20
50 35 11
50 36 7
50 37 4
50 38 2
50 39 16
50 40 20
50 41 7
50 42 18
50 43 6
50 44 8
50 45 19
50 46 4
50 47 11
50 48 15
50 49 10
51 0 15
51 1 18
51 2 8
51 3 10
51 4 5
51 5 10
51 6 6
51 7 5
51 8 11
51 9 12
51 10 1
51 11 13
51 12 2
51 13 18
51 14 1
51 15 12
51 16 19
51 17 17
51 18 17
51 19 7
51 20 10
51 21 9
51 22 5
51 23 9
51 24 13
51 25 5
51 26 16
51 27 12
51 28 7
51 29 7
51 30 12
51 31 16
51 32 1
51 33 13
51 34 20
51 35 14
51 36 17
51 37 8
51 38 5
51 39 2
51 40 17
51 41 3
51 42 3
51 43 5
51 44 15
51 45 7
51 46 10
51 47 8
51 48 3
51 49 4
51 50 13
52 0 16
52 1 14
52 2 9
52 3 19
52 4 8
52 5 15
52 6 17
52 7 17
52 8 5
52 9 20
52 10 13
52 11 7
52 12 5
52 13 7
52 14 9
52 15 16
52 16 16
52 17 18
52 18 5
52 19 1
52 20 12
52 21 8
52 22 5
52 23 3
52 24 6
52 25 14
52 26 1
52 27 17
52 28 4
52 29 14
52 30 4
52 31 10
52 32 17
52 33 12
52 34 8
52 35 15
52 36 8
52 37 13
52 38 8
52 39 5
52 40 5
52 41 14
52 42 15
52 43 17
52 44 18
52 45 5
52 46 20
52 47 4
52 48 1
52 49 17
52 50 10
52 51 5
53 0 2
53 1 15
53 2 13
53 3 6
53 4 2
53 5 12
53 6 15
53 7 5
53 8 3
53 9 4
53 10 12
53 11 1
53 12 19
53 13 19
53 14 1
53 15 7
53 16 11
53 17 6
53 18 20
53 19 10
53 20 18
53 21 3
53 22 9
53 23 11
53 24 18
53 25 11
53 26 3
53 27 14
53 28 5
53 29 11
53 30 16
53 31 12
53 32 1
53 33 9
53 34 15
53 35 5
53 36 1
53 37 18
53 38 12
53 39 9
53 40 20
53 41 20
53 42 5
53 43 6
53 44 12
53 45 12
53 46 8
53 47 12
53 48 13
53 49 6
53 50 6
53 51 17
53 52 1
54 0 13
54 1 11
54 2 15
54 3 5
54 4 14
54 5 15
54 6 9
54 7 15
54 8 15
54 9 1
54 10 7
54 11 7
54 12 11
54 13 8
54 14 5
54 15 18
54 16 10
54 17 13
54 18 8
54 19 19
54 20 16
54 21 2
54 22 1
54 23 2
54 24 1
54 25 12
54 26 3
54 27 3
54 28 9
54 29 8
54 30 5
54 31 8
54 32 6
54 33 20
54 34 1
54 35 18
54 36 20
54 37 14
54 38 12
54 39 3
54 40 12
54 41 2
54 42 12
54 43 15
54 44 18
54 45 19
54 46 13
54 47 7
54 48 16
54 49 5
54 50 11
54 51 9
54 52 3
54 53 18
55 0 8
55 1 13
55 2 17
55 3 18
55 4 16
55 5 1
55 6 20
55 7 16
55 8 1
55 9 2
55 10 14
55 11 17
55 12 17
55 13 13
55 14 7
55 15 13
55 16 13
55 17 8
55 18 16
55 19 18
55 20 18
55 21 5
55 22 12
55 23 1
55 24 8
55 25 4
55 26 6
55 27 11
55 28 5
55 29 4
55 30 9
55 31 5
55 32 18
55 33 2
55 34 17
55 35 6
55 36 17
55 37 17
55 38 6
55 39 7
55 40 6
55 41 13
55 42 2
55 43 20
55 44 13
55 45 17
55 46 7
55 47 4
55 48 18
55 49 12
55 50 7
55 51 4
55 52 8
55 53 10
55 54 10
56 0 12
56 1 4
56 2 1
56 3 19
56 4 12
56 5 5
56 6 20
56 7 17
56 8 11
56 9 6
56 10 1
56 11 18
56 12 16
56 13 10
56 14 7
56 15 19
56 16 20
56 17 3
56 18 1
56 19 20
56 20 1
56 21 9
56 22 10
56 23 16
56 24 9
56 25 19
56 26 18
56 27 12
56 28 12
56 29 10
56 30 5
56 31 8
56 32 15
56 33 5
56 34 7
56 35 11
56 36 5
56 37 20
56 38 15
56 39 6
56 40 15
56 41 11
56 42 10
56 43 17
56 44 2
56 45 7
56 46 13
56 47 9
56 48 18
56 49 4
56 50 10
56 51 9
56 52 9
56 53 6
56 54 2
56 55 5
57 0 3
57 1 20
57 2 10
57 3 19
57 4 7
57 5 3
57 6 14
57 7 15
57 8 12
57 9 7
57 10 7
57 11 6
57 12 19
57 13 2
57 14 7
57 15 3
57 16 7
57 17 12
57 18 18
57 19 7
57 20 10
57 21 14
57 22 1
57 23 8
57 24 4
57 25 3
57 26 7
57 27 10
57 28 6
57 29 9
57 30 12
57 31 3
57 32 11
57 33 4
57 34 7
57 35 1
57 36 8
57 37 2
57 38 17
57 39 14
57 40 5
57 41 8
57 42 14
57 43 19
57 44 16
57 45 14
57 46 9
57 47 8
57 48 6
57 49 11
57 50 3
57 51 1
57 52 18
57 53 3
57 54 19
57 55 20
57 56 19
58 0 18
58 1 1
58 2 11
58 3 4
58 4 1
58 5 3
58 6 9
58 7 7
58 8 4
58 9 7
58 10 7
58 11 1
58 12 13
58 13 4
58 14 17
58 15 14
58 16 19
58 17 17
58 18 8
58 19 8
58 20 19
58 21 10
58 22 5
58 23 19
58 24 3
58 25 6
58 26 20
58 27 14
58 28 12
58 29 12
58 30 9
58 31 20
58 32 1
58 33 20
58 34 17
58 35 2
58 36 6
58 37 5
58 38 20
58 39 8
58 40 9
58 41 1
58 42 9
58 43 4
58 44 15
58 45 13
58 46 7
58 47 13
58 48 9
58 49 9
58 50 2
58 51 14
58 52 6
58 53 12
58 54 10
58 55 17
58 56 5
58 57 12
59 0 2
59 1 12
59 2 4
59 3 6
59 4 6
59 5 20
59 6 9
59 7 10
59 8 15
59 9 8
59 10 1
59 11 7
59 12 15
59 13 20
59 14 15
59 15 13
59 16 8
59 17 18
59 18 11
59 19 11
59 20 11
59 21 13
59 22 13
59 23 13
59 24 5
59 25 18
59 26 1
59 27 10
59 28 16
59 29 14
59 30 1
59 31 7
59 32 12
59 33 12
59 34 5
59 35 2
59 36 1
59 37 4
59 38 10
59 39 12
59 40 8
59 41 15
59 42 3
59 43 2
59 44 10
59 45 6
59 46 8
59 47 15
59 48 7
59 49 11
59 50 17
59 51 9
59 52 6
59 53 13
59 54 2
59 55 14
59 56 11
59 57 11
59 58 13
